p cnf 146 513
c p weight -15 1 0
c p weight 15 -1 0
c p weight 19 6.12323399573676603586882014729198302312846062338790031898128063403419218957424163818359375E-17 0
c p weight -19 1 0
c p weight 20 1 0
c p weight -20 1 0
c p weight -17 1 0
c p weight 17 -1 0
c p weight -21 1 0
c p weight 21 -1 0
c p weight -23 1 0
c p weight 23 -1 0
c p weight -24 1 0
c p weight 24 -1 0
c p weight 28 6.12323399573676603586882014729198302312846062338790031898128063403419218957424163818359375E-17 0
c p weight -28 1 0
c p weight 29 1 0
c p weight -29 1 0
c p weight -26 1 0
c p weight 26 -1 0
c p weight -30 1 0
c p weight 30 -1 0
c p weight -32 1 0
c p weight 32 -1 0
c p weight -33 1 0
c p weight 33 -1 0
c p weight 37 6.12323399573676603586882014729198302312846062338790031898128063403419218957424163818359375E-17 0
c p weight -37 1 0
c p weight 38 1 0
c p weight -38 1 0
c p weight -35 1 0
c p weight 35 -1 0
c p weight -39 1 0
c p weight 39 -1 0
c p weight -41 1 0
c p weight 41 -1 0
c p weight 45 6.12323399573676603586882014729198302312846062338790031898128063403419218957424163818359375E-17 0
c p weight -45 1 0
c p weight 46 1 0
c p weight -46 1 0
c p weight -43 1 0
c p weight 43 -1 0
c p weight -47 1 0
c p weight 47 -1 0
c p weight -49 1 0
c p weight 49 -1 0
c p weight -50 1 0
c p weight 50 -1 0
c p weight 54 6.12323399573676603586882014729198302312846062338790031898128063403419218957424163818359375E-17 0
c p weight -54 1 0
c p weight 55 1 0
c p weight -55 1 0
c p weight -52 1 0
c p weight 52 -1 0
c p weight -56 1 0
c p weight 56 -1 0
c p weight -58 1 0
c p weight 58 -1 0
c p weight 62 6.12323399573676603586882014729198302312846062338790031898128063403419218957424163818359375E-17 0
c p weight -62 1 0
c p weight 63 1 0
c p weight -63 1 0
c p weight -60 1 0
c p weight 60 -1 0
c p weight -64 1 0
c p weight 64 -1 0
c p weight -66 1 0
c p weight 66 -1 0
c p weight -67 1 0
c p weight 67 -1 0
c p weight -68 1 0
c p weight 68 -1 0
c p weight 72 6.12323399573676603586882014729198302312846062338790031898128063403419218957424163818359375E-17 0
c p weight -72 1 0
c p weight 73 1 0
c p weight -73 1 0
c p weight -70 1 0
c p weight 70 -1 0
c p weight -74 1 0
c p weight 74 -1 0
c p weight -76 1 0
c p weight 76 -1 0
c p weight -79 1 0
c p weight 79 -1 0
c p weight -80 1 0
c p weight 80 -1 0
c p weight 84 6.12323399573676603586882014729198302312846062338790031898128063403419218957424163818359375E-17 0
c p weight -84 1 0
c p weight 85 1 0
c p weight -85 1 0
c p weight -82 1 0
c p weight 82 -1 0
c p weight -86 1 0
c p weight 86 -1 0
c p weight -88 1 0
c p weight 88 -1 0
c p weight -91 1 0
c p weight 91 -1 0
c p weight -92 1 0
c p weight 92 -1 0
c p weight 96 6.12323399573676603586882014729198302312846062338790031898128063403419218957424163818359375E-17 0
c p weight -96 1 0
c p weight 97 1 0
c p weight -97 1 0
c p weight -94 1 0
c p weight 94 -1 0
c p weight -98 1 0
c p weight 98 -1 0
c p weight -100 1 0
c p weight 100 -1 0
c p weight -103 1 0
c p weight 103 -1 0
c p weight 107 6.12323399573676603586882014729198302312846062338790031898128063403419218957424163818359375E-17 0
c p weight -107 1 0
c p weight 108 1 0
c p weight -108 1 0
c p weight -105 1 0
c p weight 105 -1 0
c p weight -109 1 0
c p weight 109 -1 0
c p weight -111 1 0
c p weight 111 -1 0
c p weight -114 1 0
c p weight 114 -1 0
c p weight -115 1 0
c p weight 115 -1 0
c p weight 119 6.12323399573676603586882014729198302312846062338790031898128063403419218957424163818359375E-17 0
c p weight -119 1 0
c p weight 120 1 0
c p weight -120 1 0
c p weight -117 1 0
c p weight 117 -1 0
c p weight -121 1 0
c p weight 121 -1 0
c p weight -123 1 0
c p weight 123 -1 0
c p weight -126 1 0
c p weight 126 -1 0
c p weight 130 6.12323399573676603586882014729198302312846062338790031898128063403419218957424163818359375E-17 0
c p weight -130 1 0
c p weight 131 1 0
c p weight -131 1 0
c p weight -128 1 0
c p weight 128 -1 0
c p weight -132 1 0
c p weight 132 -1 0
c p weight -134 1 0
c p weight 134 -1 0
c p weight -137 1 0
c p weight 137 -1 0
c p weight -138 1 0
c p weight 138 -1 0
c p weight 142 6.12323399573676603586882014729198302312846062338790031898128063403419218957424163818359375E-17 0
c p weight -142 1 0
c p weight 143 1 0
c p weight -143 1 0
c p weight -140 1 0
c p weight 140 -1 0
c p weight -144 1 0
c p weight 144 -1 0
c p weight 146 0.5 0
c p weight -146 1 0
146 0
-13 0
-11 0
-9 0
-7 0
-5 0
-3 0
-1 0
-15 1 0
-15 2 0
15 -1 -2 0
16 1 -2 0
16 -1 2 0
-16 1 2 0
-16 -1 -2 0
-17 18 0
-17 16 0
-17 -1 0
17 -18 1 -16 0
18 -1 16 0
-18 1 16 0
-19 16 0
18 -19 -1 0
-18 -19 1 0
18 19 1 -16 0
-18 19 -1 -16 0
-20 16 0
18 -20 1 0
-18 -20 -1 0
18 20 -1 -16 0
-18 20 1 -16 0
-21 18 0
-21 16 0
21 -18 -16 0
22 18 -16 0
22 -18 16 0
-22 18 16 0
-22 -18 -16 0
23 -22 0
-23 22 0
-24 3 0
-24 4 0
24 -3 -4 0
25 3 -4 0
25 -3 4 0
-25 3 4 0
-25 -3 -4 0
-26 27 0
-26 25 0
-26 -3 0
26 -27 3 -25 0
27 -3 25 0
-27 3 25 0
-28 25 0
27 -28 -3 0
-27 -28 3 0
27 28 3 -25 0
-27 28 -3 -25 0
-29 25 0
27 -29 3 0
-27 -29 -3 0
27 29 -3 -25 0
-27 29 3 -25 0
-30 27 0
-30 25 0
30 -27 -25 0
31 27 -25 0
31 -27 25 0
-31 27 25 0
-31 -27 -25 0
32 -31 0
-32 31 0
-33 5 0
-33 6 0
33 -5 -6 0
34 5 -6 0
34 -5 6 0
-34 5 6 0
-34 -5 -6 0
-35 36 0
-35 34 0
-35 -5 0
35 -36 5 -34 0
36 -5 34 0
-36 5 34 0
-37 34 0
36 -37 -5 0
-36 -37 5 0
36 37 5 -34 0
-36 37 -5 -34 0
-38 34 0
36 -38 5 0
-36 -38 -5 0
36 38 -5 -34 0
-36 38 5 -34 0
-39 36 0
-39 34 0
39 -36 -34 0
40 36 -34 0
40 -36 34 0
-40 36 34 0
-40 -36 -34 0
-41 7 0
-41 8 0
41 -7 -8 0
42 7 -8 0
42 -7 8 0
-42 7 8 0
-42 -7 -8 0
-43 44 0
-43 42 0
-43 -7 0
43 -44 7 -42 0
44 -7 42 0
-44 7 42 0
-45 42 0
44 -45 -7 0
-44 -45 7 0
44 45 7 -42 0
-44 45 -7 -42 0
-46 42 0
44 -46 7 0
-44 -46 -7 0
44 46 -7 -42 0
-44 46 7 -42 0
-47 44 0
-47 42 0
47 -44 -42 0
48 44 -42 0
48 -44 42 0
-48 44 42 0
-48 -44 -42 0
49 -48 0
-49 48 0
-50 9 0
-50 10 0
50 -9 -10 0
51 9 -10 0
51 -9 10 0
-51 9 10 0
-51 -9 -10 0
-52 53 0
-52 51 0
-52 -9 0
52 -53 9 -51 0
53 -9 51 0
-53 9 51 0
-54 51 0
53 -54 -9 0
-53 -54 9 0
53 54 9 -51 0
-53 54 -9 -51 0
-55 51 0
53 -55 9 0
-53 -55 -9 0
53 55 -9 -51 0
-53 55 9 -51 0
-56 53 0
-56 51 0
56 -53 -51 0
57 53 -51 0
57 -53 51 0
-57 53 51 0
-57 -53 -51 0
-58 11 0
-58 12 0
58 -11 -12 0
59 11 -12 0
59 -11 12 0
-59 11 12 0
-59 -11 -12 0
-60 61 0
-60 59 0
-60 -11 0
60 -61 11 -59 0
61 -11 59 0
-61 11 59 0
-62 59 0
61 -62 -11 0
-61 -62 11 0
61 62 11 -59 0
-61 62 -11 -59 0
-63 59 0
61 -63 11 0
-61 -63 -11 0
61 63 -11 -59 0
-61 63 11 -59 0
-64 61 0
-64 59 0
64 -61 -59 0
65 61 -59 0
65 -61 59 0
-65 61 59 0
-65 -61 -59 0
66 -65 0
-66 65 0
67 -14 0
-67 14 0
-68 13 0
-68 14 0
68 -13 -14 0
69 13 -14 0
69 -13 14 0
-69 13 14 0
-69 -13 -14 0
-70 71 0
-70 69 0
-70 -13 0
70 -71 13 -69 0
71 -13 69 0
-71 13 69 0
-72 69 0
71 -72 -13 0
-71 -72 13 0
71 72 13 -69 0
-71 72 -13 -69 0
-73 69 0
71 -73 13 0
-71 -73 -13 0
71 73 -13 -69 0
-71 73 13 -69 0
-74 71 0
-74 69 0
74 -71 -69 0
75 71 -69 0
75 -71 69 0
-75 71 69 0
-75 -71 -69 0
-76 18 0
-76 75 0
-76 71 -22 0
-76 -71 22 0
76 -18 71 22 -75 0
76 -18 -71 -22 -75 0
78 18 -71 0
78 -18 71 0
-78 18 71 0
-78 -18 -71 0
77 22 -75 0
77 -22 75 0
-77 22 75 0
-77 -22 -75 0
79 -77 0
-79 77 0
-80 18 0
-80 77 0
80 -18 -77 0
81 18 -77 0
81 -18 77 0
-81 18 77 0
-81 -18 -77 0
-82 83 0
-82 81 0
-82 -18 0
82 -83 18 -81 0
83 -18 81 0
-83 18 81 0
-84 81 0
83 -84 -18 0
-83 -84 18 0
83 84 18 -81 0
-83 84 -18 -81 0
-85 81 0
83 -85 18 0
-83 -85 -18 0
83 85 -18 -81 0
-83 85 18 -81 0
-86 83 0
-86 81 0
86 -83 -81 0
87 83 -81 0
87 -83 81 0
-87 83 81 0
-87 -83 -81 0
-88 27 0
-88 75 0
-88 78 -31 0
-88 -78 31 0
88 -27 78 31 -75 0
88 -27 -78 -31 -75 0
90 27 -78 0
90 -27 78 0
-90 27 78 0
-90 -27 -78 0
89 31 -75 0
89 -31 75 0
-89 31 75 0
-89 -31 -75 0
91 -89 0
-91 89 0
-92 27 0
-92 89 0
92 -27 -89 0
93 27 -89 0
93 -27 89 0
-93 27 89 0
-93 -27 -89 0
-94 95 0
-94 93 0
-94 -27 0
94 -95 27 -93 0
95 -27 93 0
-95 27 93 0
-96 93 0
95 -96 -27 0
-95 -96 27 0
95 96 27 -93 0
-95 96 -27 -93 0
-97 93 0
95 -97 27 0
-95 -97 -27 0
95 97 -27 -93 0
-95 97 27 -93 0
-98 95 0
-98 93 0
98 -95 -93 0
99 95 -93 0
99 -95 93 0
-99 95 93 0
-99 -95 -93 0
-100 36 0
-100 75 0
-100 90 -40 0
-100 -90 40 0
100 -36 90 40 -75 0
100 -36 -90 -40 -75 0
102 36 -90 0
102 -36 90 0
-102 36 90 0
-102 -36 -90 0
101 40 -75 0
101 -40 75 0
-101 40 75 0
-101 -40 -75 0
-103 36 0
-103 101 0
103 -36 -101 0
104 36 -101 0
104 -36 101 0
-104 36 101 0
-104 -36 -101 0
-105 106 0
-105 104 0
-105 -36 0
105 -106 36 -104 0
106 -36 104 0
-106 36 104 0
-107 104 0
106 -107 -36 0
-106 -107 36 0
106 107 36 -104 0
-106 107 -36 -104 0
-108 104 0
106 -108 36 0
-106 -108 -36 0
106 108 -36 -104 0
-106 108 36 -104 0
-109 106 0
-109 104 0
109 -106 -104 0
110 106 -104 0
110 -106 104 0
-110 106 104 0
-110 -106 -104 0
-111 44 0
-111 75 0
-111 102 -48 0
-111 -102 48 0
111 -44 102 48 -75 0
111 -44 -102 -48 -75 0
113 44 -102 0
113 -44 102 0
-113 44 102 0
-113 -44 -102 0
112 48 -75 0
112 -48 75 0
-112 48 75 0
-112 -48 -75 0
114 -112 0
-114 112 0
-115 44 0
-115 112 0
115 -44 -112 0
116 44 -112 0
116 -44 112 0
-116 44 112 0
-116 -44 -112 0
-117 118 0
-117 116 0
-117 -44 0
117 -118 44 -116 0
118 -44 116 0
-118 44 116 0
-119 116 0
118 -119 -44 0
-118 -119 44 0
118 119 44 -116 0
-118 119 -44 -116 0
-120 116 0
118 -120 44 0
-118 -120 -44 0
118 120 -44 -116 0
-118 120 44 -116 0
-121 118 0
-121 116 0
121 -118 -116 0
122 118 -116 0
122 -118 116 0
-122 118 116 0
-122 -118 -116 0
-123 53 0
-123 75 0
-123 113 -57 0
-123 -113 57 0
123 -53 113 57 -75 0
123 -53 -113 -57 -75 0
125 53 -113 0
125 -53 113 0
-125 53 113 0
-125 -53 -113 0
124 57 -75 0
124 -57 75 0
-124 57 75 0
-124 -57 -75 0
-126 53 0
-126 124 0
126 -53 -124 0
127 53 -124 0
127 -53 124 0
-127 53 124 0
-127 -53 -124 0
-128 129 0
-128 127 0
-128 -53 0
128 -129 53 -127 0
129 -53 127 0
-129 53 127 0
-130 127 0
129 -130 -53 0
-129 -130 53 0
129 130 53 -127 0
-129 130 -53 -127 0
-131 127 0
129 -131 53 0
-129 -131 -53 0
129 131 -53 -127 0
-129 131 53 -127 0
-132 129 0
-132 127 0
132 -129 -127 0
133 129 -127 0
133 -129 127 0
-133 129 127 0
-133 -129 -127 0
-134 61 0
-134 75 0
-134 125 -65 0
-134 -125 65 0
134 -61 125 65 -75 0
134 -61 -125 -65 -75 0
136 61 -125 0
136 -61 125 0
-136 61 125 0
-136 -61 -125 0
135 65 -75 0
135 -65 75 0
-135 65 75 0
-135 -65 -75 0
137 -135 0
-137 135 0
-138 61 0
-138 135 0
138 -61 -135 0
139 61 -135 0
139 -61 135 0
-139 61 135 0
-139 -61 -135 0
-140 141 0
-140 139 0
-140 -61 0
140 -141 61 -139 0
141 -61 139 0
-141 61 139 0
-142 139 0
141 -142 -61 0
-141 -142 61 0
141 142 61 -139 0
-141 142 -61 -139 0
-143 139 0
141 -143 61 0
-141 -143 -61 0
141 143 -61 -139 0
-141 143 61 -139 0
-144 141 0
-144 139 0
144 -141 -139 0
145 141 -139 0
145 -141 139 0
-145 141 139 0
-145 -141 -139 0
-83 0
-95 0
-99 0
-106 0
-110 0
-118 0
-122 0
-129 0
-133 0
-141 0
-145 0
-136 0
-75 0
